14570.66,47.79,54.29
17927.3,38.85,44.13
15214.43,45.77,52.0
14522.43,47.95,54.48
14268.08,48.81,55.45
14661.45,47.5,53.96
13973.52,49.84,56.61
14276.33,48.78,55.41
14528.6,47.93,54.45
15497.05,44.94,51.05
16869.45,41.28,46.9
16030.57,43.44,49.35
14129.78,49.29,55.99
14984.69,46.47,52.79
15851.73,43.93,49.91
13740.27,50.68,57.58
13939.54,49.96,56.75
15692.25,44.38,50.41
15234.73,45.71,51.93
13685.75,50.88,57.81
